p edge 86 198
e 1 9
e 1 10
e 1 18
e 1 20
e 1 22
e 1 24
e 1 42
e 1 46
e 1 51
e 2 4
e 2 13
e 2 14
e 2 16
e 2 17
e 2 60
e 2 61
e 2 71
e 3 7
e 3 12
e 3 13
e 3 14
e 3 23
e 3 35
e 3 39
e 3 41
e 3 61
e 3 82
e 3 83
e 4 5
e 4 13
e 4 15
e 4 18
e 4 50
e 4 55
e 4 66
e 4 71
e 5 8
e 5 33
e 5 34
e 5 49
e 5 50
e 5 52
e 5 53
e 5 55
e 5 66
e 5 76
e 6 10
e 6 23
e 6 25
e 6 44
e 6 65
e 6 73
e 7 23
e 7 26
e 7 41
e 7 54
e 7 56
e 8 11
e 8 12
e 8 19
e 8 48
e 8 49
e 8 70
e 8 72
e 8 85
e 9 10
e 9 18
e 9 20
e 9 22
e 9 52
e 9 53
e 9 79
e 9 80
e 9 81
e 10 20
e 10 23
e 10 24
e 10 26
e 10 27
e 10 39
e 10 44
e 10 59
e 11 30
e 11 72
e 12 13
e 12 16
e 12 35
e 12 47
e 12 48
e 12 61
e 12 64
e 12 70
e 12 82
e 12 83
e 13 14
e 13 17
e 13 82
e 13 83
e 14 17
e 14 25
e 14 63
e 15 25
e 15 30
e 15 31
e 15 43
e 15 57
e 15 58
e 15 75
e 16 60
e 16 70
e 17 32
e 17 35
e 17 37
e 17 38
e 17 63
e 18 20
e 18 42
e 18 45
e 18 79
e 19 28
e 19 34
e 19 85
e 20 41
e 21 31
e 21 37
e 21 43
e 21 57
e 21 69
e 22 42
e 22 46
e 22 80
e 22 81
e 23 35
e 23 39
e 23 44
e 23 54
e 24 32
e 24 40
e 25 43
e 26 27
e 26 56
e 26 59
e 26 86
e 27 29
e 27 56
e 27 59
e 27 86
e 28 47
e 29 34
e 29 59
e 29 62
e 30 31
e 30 57
e 30 75
e 31 57
e 31 75
e 32 38
e 32 40
e 32 44
e 33 36
e 33 49
e 33 52
e 33 53
e 33 76
e 34 62
e 35 38
e 35 39
e 35 61
e 36 49
e 36 72
e 37 63
e 38 40
e 38 44
e 39 41
e 40 44
e 42 45
e 45 67
e 46 53
e 47 64
e 48 70
e 50 55
e 50 58
e 50 66
e 50 74
e 52 53
e 52 76
e 53 76
e 55 66
e 57 58
e 57 75
e 58 74
e 58 75
e 65 73
e 65 77
e 67 78
e 68 84
e 80 81
e 82 83
